# Solution for model TSP0
# Objective value = 2.5456195496224495e+03
I0(2) 0
I1(2) 0
I2(2) 0
I3(2) 1
I4(2) 0
I5(2) 0
I6(2) 0
I7(2) 0
I8(2) 0
I9(2) 0
I10(2) 0
I11(2) 0
I12(2) 0
I13(2) 0
I14(2) 0
I15(2) 0
I16(2) 0
I17(2) 1
I18(2) 0
I19(2) 0
I20(2) 0
I21(2) 0
I22(2) 0
I23(2) 0
I24(2) 0
I25(2) 0
I26(2) 0
I27(2) 0
I28(2) 0
I29(2) 0
I30(2) 0
I31(2) 0
I32(2) 0
I33(2) 1
I34(2) 1
I35(2) 0
I36(2) 0
I37(2) 0
I38(2) 0
I39(2) 0
I40(2) 0
I41(2) 0
I42(2) 0
I43(2) 1
I44(2) 0
I45(2) 0
I46(2) 0
I47(2) 0
I48(2) 0
I49(2) 0
I50(2) 0
I51(2) 1
I52(2) 0
I53(2) 0
I54(2) 0
I55(2) 0
I56(2) 0
I57(2) 0
I58(2) 0
I59(2) 0
I60(2) 1
I61(2) 1
I62(2) 0
I63(2) 0
I64(2) 0
I65(2) 0
I66(2) 0
I67(2) 0
I68(2) 0
I69(2) 0
I70(2) 0
I71(2) 0
I72(2) 0
I73(2) 0
I74(2) 0
I75(2) 0
I76(2) 0
I77(2) 0
I78(2) 0
I79(2) 0
I80(2) 0
I81(2) 0
I82(2) 0
I83(2) 1
I84(2) 0
I85(2) 0
I86(2) 0
I87(2) 1
I88(2) 0
I89(2) 0
I90(2) 0
I91(2) 0
I92(2) 0
I93(2) 0
I94(2) 0
I95(2) 0
I96(2) 0
I97(2) 0
I98(2) 1
I99(2) 1
I100(2) 0
I101(2) 0
I102(2) 0
I103(2) 0
I104(2) 0
I105(2) 0
I106(2) 1
I107(2) 0
I108(2) 0
I109(2) 0
I110(2) 0
I111(2) 0
I112(2) 0
I113(2) 0
I114(2) 0
I115(2) 0
I116(2) 0
I117(2) 0
I118(2) 1
I119(2) 0
I120(2) 0
I121(2) 0
I122(2) 0
I123(2) 0
I124(2) 0
I125(2) 0
I126(2) 0
I127(2) 0
I128(2) 0
I129(2) 0
I130(2) 1
I131(2) 0
I132(2) 0
I133(2) 0
I134(2) 0
I135(2) 0
I136(2) 0
I137(2) 1
I138(2) 0
I139(2) 0
I140(2) 0
I141(2) 0
I142(2) 0
I143(2) 0
I144(2) 0
I145(2) 1
I146(2) 0
I147(2) 0
I148(2) 0
I149(2) 0
I150(2) 0
I151(2) 0
I152(2) 0
I153(2) 0
I154(2) 0
I155(2) 0
I156(2) 0
I157(2) 0
I158(2) 0
I159(2) 0
I160(2) 0
I161(2) 0
I162(2) 1
I163(2) 0
I164(2) 0
I165(2) 0
I166(2) 0
I167(2) 0
I168(2) 0
I169(2) 0
I170(2) 0
I171(2) 0
I172(2) 0
I173(2) 0
I174(2) 1
I175(2) 0
I176(2) 0
I177(2) 0
I178(2) 0
I179(2) 0
I180(2) 1
I181(2) 0
I182(2) 0
I183(2) 0
I184(2) 0
I185(2) 0
I186(2) 0
I187(2) 0
I188(2) 0
I189(2) 0
